
  10    2
   3    3

   0   0   0   1 2 
   2   1   0   1 3 
   2   2   1   2 7 4 
   2   1   0   1 5 
   2   0   0   1 6 
   2   1   0   1 8 
   2   0   2   1 8 
   2   2   0   1 9 
   2   0   1   1 10
   0   0   0   0 
